
Log started (V12.6.0.0) Thu Dec 11 23:54:35 2014


Problem '/home/piotrek/Kodzenie/SolversComparision/problems/grow15cplex.lp' read.
Read time = 0.09 sec. (0.13 ticks)
Tried aggregator 1 time.
LP Presolve eliminated 600 rows and 0 columns.
Reduced LP has 300 rows, 645 columns, and 5620 nonzeros.
Presolve time = 0.02 sec. (0.76 ticks)
Initializing dual steep norms . . .

Iteration log . . .
Iteration:     1   Dual objective     =    -129750000.000000
Iteration:    68   Dual objective     =    -120428539.166308
Iteration:   130   Dual objective     =    -119025874.716446
Iteration:   192   Dual objective     =    -110795439.062946
Iteration:   254   Dual objective     =    -110721771.513478
Iteration:   316   Dual objective     =    -109407726.706225
Iteration:   378   Dual objective     =    -108379587.268473
Iteration:   440   Dual objective     =    -107488207.524802
Iteration:   502   Dual objective     =    -107263517.643337
Iteration:   564   Dual objective     =    -107245934.257551
Iteration:   626   Dual objective     =    -107150358.504341
Iteration:   688   Dual objective     =    -107144169.704746
Iteration:   750   Dual objective     =    -106877486.592265
Iteration:   812   Dual objective     =    -106871414.852723
Removing shift (202).

Dual simplex - Optimal:  Objective = -1.0687094129e+08
Solution time =    0.10 sec.  Iterations = 857 (0)
Deterministic time = 47.97 ticks  (497.81 ticks/sec)


Solution written to file '/home/piotrek/Kodzenie/SolversComparision/outputs/grow15cplex.sol'.

Log started (V12.6.0.0) Thu Dec 11 23:54:35 2014

CPLEX Error  1016: Restricted version.  Problem size limits exceeded.
No file read.
No problem exists.
No problem exists.
No file written.

Log started (V12.6.0.0) Thu Dec 11 23:54:36 2014

CPLEX Error  1016: Restricted version.  Problem size limits exceeded.
No file read.
No problem exists.
No problem exists.
No file written.

Log started (V12.6.0.0) Thu Dec 11 23:54:36 2014

CPLEX Error  1016: Restricted version.  Problem size limits exceeded.
No file read.
No problem exists.
No problem exists.
No file written.

Log started (V12.6.0.0) Thu Dec 11 23:54:36 2014

CPLEX Error  1016: Restricted version.  Problem size limits exceeded.
No file read.
No problem exists.
No problem exists.
No file written.

Log started (V12.6.0.0) Thu Dec 11 23:54:37 2014

CPLEX Error  1016: Restricted version.  Problem size limits exceeded.
No file read.
No problem exists.
No problem exists.
No file written.

Log started (V12.6.0.0) Thu Dec 11 23:54:37 2014


Problem '/home/piotrek/Kodzenie/SolversComparision/problems/grow7cplex.lp' read.
Read time = 0.01 sec. (0.06 ticks)
Tried aggregator 1 time.
LP Presolve eliminated 280 rows and 0 columns.
Reduced LP has 140 rows, 301 columns, and 2612 nonzeros.
Presolve time = 0.00 sec. (0.35 ticks)
Initializing dual steep norms . . .

Iteration log . . .
Iteration:     1   Dual objective     =     -57750000.000000
Iteration:    62   Dual objective     =     -54002540.117612
Iteration:   124   Dual objective     =     -49472686.399925
Iteration:   186   Dual objective     =     -48337320.718784
Iteration:   248   Dual objective     =     -47952954.297190
Iteration:   310   Dual objective     =     -47806609.433810
Iteration:   372   Dual objective     =     -47788509.436605
Removing shift (75).

Dual simplex - Optimal:  Objective = -4.7787811815e+07
Solution time =    0.01 sec.  Iterations = 394 (0)
Deterministic time = 11.83 ticks  (826.93 ticks/sec)


Solution written to file '/home/piotrek/Kodzenie/SolversComparision/outputs/grow7cplex.sol'.

Log started (V12.6.0.0) Fri Dec 12 00:02:00 2014


Problem '/home/piotrek/Kodzenie/SolversComparision/problems/grow15cplex.lp' read.
Read time = 0.01 sec. (0.13 ticks)
Tried aggregator 1 time.
LP Presolve eliminated 600 rows and 0 columns.
Reduced LP has 300 rows, 645 columns, and 5620 nonzeros.
Presolve time = 0.00 sec. (0.76 ticks)
Initializing dual steep norms . . .

Iteration log . . .
Iteration:     1   Dual objective     =    -129750000.000000
Iteration:    68   Dual objective     =    -120428539.166308
Iteration:   130   Dual objective     =    -119025874.716446
Iteration:   192   Dual objective     =    -110795439.062946
Iteration:   254   Dual objective     =    -110721771.513478
Iteration:   316   Dual objective     =    -109407726.706225
Iteration:   378   Dual objective     =    -108379587.268473
Iteration:   440   Dual objective     =    -107488207.524802
Iteration:   502   Dual objective     =    -107263517.643337
Iteration:   564   Dual objective     =    -107245934.257551
Iteration:   626   Dual objective     =    -107150358.504341
Iteration:   688   Dual objective     =    -107144169.704746
Iteration:   750   Dual objective     =    -106877486.592265
Iteration:   812   Dual objective     =    -106871414.852723
Removing shift (202).

Dual simplex - Optimal:  Objective = -1.0687094129e+08
Solution time =    0.05 sec.  Iterations = 857 (0)
Deterministic time = 47.97 ticks  (928.15 ticks/sec)


Solution written to file '/home/piotrek/Kodzenie/SolversComparision/outputs/grow15cplex.sol'.

Log started (V12.6.0.0) Fri Dec 12 00:02:00 2014

CPLEX Error  1016: Restricted version.  Problem size limits exceeded.
No file read.
No problem exists.
No problem exists.
No file written.

Log started (V12.6.0.0) Fri Dec 12 00:02:00 2014

CPLEX Error  1016: Restricted version.  Problem size limits exceeded.
No file read.
No problem exists.
No problem exists.
No file written.

Log started (V12.6.0.0) Fri Dec 12 00:02:00 2014

CPLEX Error  1016: Restricted version.  Problem size limits exceeded.
No file read.
No problem exists.
No problem exists.
No file written.

Log started (V12.6.0.0) Fri Dec 12 00:02:00 2014

CPLEX Error  1016: Restricted version.  Problem size limits exceeded.
No file read.
No problem exists.
No problem exists.
No file written.

Log started (V12.6.0.0) Fri Dec 12 00:02:01 2014

CPLEX Error  1016: Restricted version.  Problem size limits exceeded.
No file read.
No problem exists.
No problem exists.
No file written.

Log started (V12.6.0.0) Fri Dec 12 00:02:01 2014


Problem '/home/piotrek/Kodzenie/SolversComparision/problems/grow7cplex.lp' read.
Read time = 0.00 sec. (0.06 ticks)
Tried aggregator 1 time.
LP Presolve eliminated 280 rows and 0 columns.
Reduced LP has 140 rows, 301 columns, and 2612 nonzeros.
Presolve time = 0.00 sec. (0.35 ticks)
Initializing dual steep norms . . .

Iteration log . . .
Iteration:     1   Dual objective     =     -57750000.000000
Iteration:    62   Dual objective     =     -54002540.117612
Iteration:   124   Dual objective     =     -49472686.399925
Iteration:   186   Dual objective     =     -48337320.718784
Iteration:   248   Dual objective     =     -47952954.297190
Iteration:   310   Dual objective     =     -47806609.433810
Iteration:   372   Dual objective     =     -47788509.436605
Removing shift (75).

Dual simplex - Optimal:  Objective = -4.7787811815e+07
Solution time =    0.02 sec.  Iterations = 394 (0)
Deterministic time = 11.83 ticks  (678.78 ticks/sec)


Solution written to file '/home/piotrek/Kodzenie/SolversComparision/outputs/grow7cplex.sol'.
